set N := AA AB AC AD AE AF AG AH AI AJ AK AL AM AN AO AP AQ AR AS AT;

set T := AA AB AC AD AE AF AG AH AI AJ;

table	K={K}	u(K)	o(K)	o_(K):
	K	u	o	o_	:=
	1	22.67	AK	AL
	2	22.07	AM	AN
	3	21.28	AO	AP
	4	14.62	AQ	AR
	5	20.00	AS	AT
;

param c default 0 :=
AA	AB	1	75.77
AA	AB	2	80.90
AA	AB	3	50.89
AA	AB	4	44.62
AA	AB	5	33.33
AA	AC	1	126.28
AA	AC	2	134.84
AA	AC	3	84.81
AA	AC	4	74.36
AA	AC	5	55.55
AA	AD	1	308.28
AA	AD	2	329.19
AA	AD	3	207.05
AA	AD	4	181.54
AA	AD	5	135.62
AA	AE	1	357.16
AA	AE	2	381.39
AA	AE	3	239.89
AA	AE	4	210.32
AA	AE	5	157.13
AA	AF	1	263.67
AA	AF	2	281.56
AA	AF	3	177.09
AA	AF	4	155.27
AA	AF	5	116.00
AA	AG	1	178.58
AA	AG	2	190.69
AA	AG	3	119.94
AA	AG	4	105.16
AA	AG	5	78.56
AA	AH	1	282.36
AA	AH	2	301.51
AA	AH	3	189.65
AA	AH	4	166.28
AA	AH	5	124.22
AA	AI	1	1318.35
AA	AI	2	1407.78
AA	AI	3	885.47
AA	AI	4	776.35
AA	AI	5	580.00
AA	AJ	1	1197.95
AA	AJ	2	1279.21
AA	AJ	3	804.60
AA	AJ	4	705.45
AA	AJ	5	527.03
AA	AK	1	328.57
AA	AK	2	350.86
AA	AK	3	220.68
AA	AK	4	193.49
AA	AK	5	144.55
AA	AL	1	835.91
AA	AL	2	892.61
AA	AL	3	561.44
AA	AL	4	492.25
AA	AL	5	367.75
AA	AM	1	406.42
AA	AM	2	433.99
AA	AM	3	272.97
AA	AM	4	239.33
AA	AM	5	178.80
AA	AN	1	1287.84
AA	AN	2	1375.20
AA	AN	3	864.97
AA	AN	4	758.38
AA	AN	5	566.57
AA	AO	1	486.86
AA	AO	2	519.88
AA	AO	3	327.00
AA	AO	4	286.70
AA	AO	5	214.19
AA	AP	1	311.86
AA	AP	2	333.01
AA	AP	3	209.46
AA	AP	4	183.65
AA	AP	5	137.20
AA	AQ	1	199.45
AA	AQ	2	212.98
AA	AQ	3	133.96
AA	AQ	4	117.45
AA	AQ	5	87.75
AA	AR	1	237.55
AA	AR	2	253.66
AA	AR	3	159.55
AA	AR	4	139.89
AA	AR	5	104.51
AA	AS	1	457.73
AA	AS	2	488.78
AA	AS	3	307.43
AA	AS	4	269.55
AA	AS	5	201.37
AA	AT	1	499.15
AA	AT	2	533.01
AA	AT	3	335.25
AA	AT	4	293.94
AA	AT	5	219.60
AB	AA	1	75.77
AB	AA	2	80.90
AB	AA	3	50.89
AB	AA	4	44.62
AB	AA	5	33.33
AB	AC	1	50.51
AB	AC	2	53.94
AB	AC	3	33.92
AB	AC	4	29.74
AB	AC	5	22.22
AB	AD	1	272.01
AB	AD	2	290.46
AB	AD	3	182.69
AB	AD	4	160.18
AB	AD	5	119.67
AB	AE	1	308.28
AB	AE	2	329.19
AB	AE	3	207.05
AB	AE	4	181.54
AB	AE	5	135.62
AB	AF	1	252.55
AB	AF	2	269.68
AB	AF	3	169.62
AB	AF	4	148.72
AB	AF	5	111.11
AB	AG	1	136.00
AB	AG	2	145.23
AB	AG	3	91.35
AB	AG	4	80.09
AB	AG	5	59.83
AB	AH	1	217.25
AB	AH	2	231.99
AB	AH	3	145.92
AB	AH	4	127.94
AB	AH	5	95.58
AB	AI	1	1298.61
AB	AI	2	1386.70
AB	AI	3	872.21
AB	AI	4	764.73
AB	AI	5	571.31
AB	AJ	1	1176.19
AB	AJ	2	1255.98
AB	AJ	3	789.99
AB	AJ	4	692.64
AB	AJ	5	517.45
AB	AK	1	259.11
AB	AK	2	276.69
AB	AK	3	174.03
AB	AK	4	152.58
AB	AK	5	113.99
AB	AL	1	838.81
AB	AL	2	895.70
AB	AL	3	563.38
AB	AL	4	493.96
AB	AL	5	369.02
AB	AM	1	341.59
AB	AM	2	364.76
AB	AM	3	229.43
AB	AM	4	201.16
AB	AM	5	150.28
AB	AN	1	1269.19
AB	AN	2	1355.28
AB	AN	3	852.45
AB	AN	4	747.40
AB	AN	5	558.37
AB	AO	1	490.90
AB	AO	2	524.20
AB	AO	3	329.71
AB	AO	4	289.08
AB	AO	5	215.97
AB	AP	1	265.02
AB	AP	2	283.00
AB	AP	3	178.00
AB	AP	4	156.07
AB	AP	5	116.59
AB	AQ	1	176.28
AB	AQ	2	188.23
AB	AQ	3	118.40
AB	AQ	4	103.81
AB	AQ	5	77.55
AB	AR	1	227.28
AB	AR	2	242.69
AB	AR	3	152.65
AB	AR	4	133.84
AB	AR	5	99.99
AB	AS	1	406.54
AB	AS	2	434.12
AB	AS	3	273.05
AB	AS	4	239.40
AB	AS	5	178.85
AB	AT	1	473.08
AB	AT	2	505.16
AB	AT	3	317.74
AB	AT	4	278.58
AB	AT	5	208.12
AC	AA	1	126.28
AC	AA	2	134.84
AC	AA	3	84.81
AC	AA	4	74.36
AC	AA	5	55.55
AC	AB	1	50.51
AC	AB	2	53.94
AC	AB	3	33.92
AC	AB	4	29.74
AC	AB	5	22.22
AC	AD	1	257.55
AC	AD	2	275.02
AC	AD	3	172.98
AC	AD	4	151.67
AC	AD	5	113.31
AC	AE	1	282.36
AC	AE	2	301.51
AC	AE	3	189.65
AC	AE	4	166.28
AC	AE	5	124.22
AC	AF	1	257.55
AC	AF	2	275.02
AC	AF	3	172.98
AC	AF	4	151.67
AC	AF	5	113.31
AC	AG	1	126.28
AC	AG	2	134.84
AC	AG	3	84.81
AC	AG	4	74.36
AC	AG	5	55.55
AC	AH	1	178.58
AC	AH	2	190.69
AC	AH	3	119.94
AC	AH	4	105.16
AC	AH	5	78.56
AC	AI	1	1287.76
AC	AI	2	1375.11
AC	AI	3	864.92
AC	AI	4	758.34
AC	AI	5	566.54
AC	AJ	1	1164.20
AC	AJ	2	1243.17
AC	AJ	3	781.93
AC	AJ	4	685.57
AC	AJ	5	512.18
AC	AK	1	215.18
AC	AK	2	229.78
AC	AK	3	144.53
AC	AK	4	126.72
AC	AK	5	94.67
AC	AL	1	844.52
AC	AL	2	901.80
AC	AL	3	567.22
AC	AL	4	497.32
AC	AL	5	371.54
AC	AM	1	301.22
AC	AM	2	321.66
AC	AM	3	202.32
AC	AM	4	177.38
AC	AM	5	132.52
AC	AN	1	1259.14
AC	AN	2	1344.55
AC	AN	3	845.70
AC	AN	4	741.48
AC	AN	5	553.95
AC	AO	1	499.99
AC	AO	2	533.91
AC	AO	3	335.82
AC	AO	4	294.44
AC	AO	5	219.97
AC	AP	1	242.09
AC	AP	2	258.51
AC	AP	3	162.60
AC	AP	4	142.56
AC	AP	5	106.50
AC	AQ	1	177.89
AC	AQ	2	189.96
AC	AQ	3	119.48
AC	AQ	4	104.76
AC	AQ	5	78.26
AC	AR	1	234.20
AC	AR	2	250.09
AC	AR	3	157.30
AC	AR	4	137.92
AC	AR	5	103.03
AC	AS	1	377.05
AC	AS	2	402.62
AC	AS	3	253.24
AC	AS	4	222.03
AC	AS	5	165.88
AC	AT	1	461.82
AC	AT	2	493.15
AC	AT	3	310.18
AC	AT	4	271.96
AC	AT	5	203.17
AD	AA	1	308.28
AD	AA	2	329.19
AD	AA	3	207.05
AD	AA	4	181.54
AD	AA	5	135.62
AD	AB	1	272.01
AD	AB	2	290.46
AD	AB	3	182.69
AD	AB	4	160.18
AD	AB	5	119.67
AD	AC	1	257.55
AD	AC	2	275.02
AD	AC	3	172.98
AD	AC	4	151.67
AD	AC	5	113.31
AD	AE	1	75.77
AD	AE	2	80.90
AD	AE	3	50.89
AD	AE	4	44.62
AD	AE	5	33.33
AD	AF	1	101.02
AD	AF	2	107.87
AD	AF	3	67.85
AD	AF	4	59.49
AD	AF	5	44.44
AD	AG	1	136.00
AD	AG	2	145.23
AD	AG	3	91.35
AD	AG	4	80.09
AD	AG	5	59.83
AD	AH	1	147.26
AD	AH	2	157.25
AD	AH	3	98.91
AD	AH	4	86.72
AD	AH	5	64.79
AD	AI	1	1030.21
AD	AI	2	1100.09
AD	AI	3	691.94
AD	AI	4	606.67
AD	AI	5	453.23
AD	AJ	1	906.72
AD	AJ	2	968.23
AD	AJ	3	609.00
AD	AJ	4	533.95
AD	AJ	5	398.90
AD	AK	1	188.59
AD	AK	2	201.38
AD	AK	3	126.66
AD	AK	4	111.06
AD	AK	5	82.97
AD	AL	1	607.86
AD	AL	2	649.09
AD	AL	3	408.27
AD	AL	4	357.96
AD	AL	5	267.42
AD	AM	1	190.79
AD	AM	2	203.73
AD	AM	3	128.15
AD	AM	4	112.35
AD	AM	5	83.94
AD	AN	1	1001.63
AD	AN	2	1069.58
AD	AN	3	672.74
AD	AN	4	589.84
AD	AN	5	440.66
AD	AO	1	286.44
AD	AO	2	305.87
AD	AO	3	192.39
AD	AO	4	168.68
AD	AO	5	126.02
AD	AP	1	48.19
AD	AP	2	51.46
AD	AP	3	32.37
AD	AP	4	28.38
AD	AP	5	21.20
AD	AQ	1	112.33
AD	AQ	2	119.95
AD	AQ	3	75.45
AD	AQ	4	66.15
AD	AQ	5	49.42
AD	AR	1	110.35
AD	AR	2	117.84
AD	AR	3	74.12
AD	AR	4	64.98
AD	AR	5	48.55
AD	AS	1	166.20
AD	AS	2	177.48
AD	AS	3	111.63
AD	AS	4	97.87
AD	AS	5	73.12
AD	AT	1	204.46
AD	AT	2	218.33
AD	AT	3	137.32
AD	AT	4	120.40
AD	AT	5	89.95
AE	AA	1	357.16
AE	AA	2	381.39
AE	AA	3	239.89
AE	AA	4	210.32
AE	AA	5	157.13
AE	AB	1	308.28
AE	AB	2	329.19
AE	AB	3	207.05
AE	AB	4	181.54
AE	AB	5	135.62
AE	AC	1	282.36
AE	AC	2	301.51
AE	AC	3	189.65
AE	AC	4	166.28
AE	AC	5	124.22
AE	AD	1	75.77
AE	AD	2	80.90
AE	AD	3	50.89
AE	AD	4	44.62
AE	AD	5	33.33
AE	AF	1	176.79
AE	AF	2	188.78
AE	AF	3	118.74
AE	AF	4	104.11
AE	AF	5	77.78
AE	AG	1	178.58
AE	AG	2	190.69
AE	AG	3	119.94
AE	AG	4	105.16
AE	AG	5	78.56
AE	AH	1	126.28
AE	AH	2	134.84
AE	AH	3	84.81
AE	AH	4	74.36
AE	AH	5	55.55
AE	AI	1	1018.06
AE	AI	2	1087.12
AE	AI	3	683.78
AE	AI	4	599.52
AE	AI	5	447.89
AE	AJ	1	892.90
AE	AJ	2	953.47
AE	AJ	3	599.71
AE	AJ	4	525.81
AE	AJ	5	392.82
AE	AK	1	146.74
AE	AK	2	156.70
AE	AK	3	98.56
AE	AK	4	86.42
AE	AK	5	64.56
AE	AL	1	633.35
AE	AL	2	676.31
AE	AL	3	425.39
AE	AL	4	372.97
AE	AL	5	278.63
AE	AM	1	121.23
AE	AM	2	129.46
AE	AM	3	81.43
AE	AM	4	71.39
AE	AM	5	53.33
AE	AN	1	991.15
AE	AN	2	1058.38
AE	AN	3	665.70
AE	AN	4	583.67
AE	AN	5	436.05
AE	AO	1	335.84
AE	AO	2	358.62
AE	AO	3	225.57
AE	AO	4	197.77
AE	AO	5	147.75
AE	AP	1	45.77
AE	AP	2	48.88
AE	AP	3	30.74
AE	AP	4	26.95
AE	AP	5	20.14
AE	AQ	1	175.21
AE	AQ	2	187.10
AE	AQ	3	117.68
AE	AQ	4	103.18
AE	AQ	5	77.08
AE	AR	1	184.91
AE	AR	2	197.45
AE	AR	3	124.19
AE	AR	4	108.89
AE	AR	5	81.35
AE	AS	1	100.87
AE	AS	2	107.71
AE	AS	3	67.75
AE	AS	4	59.40
AE	AS	5	44.38
AE	AT	1	207.94
AE	AT	2	222.05
AE	AT	3	139.66
AE	AT	4	122.45
AE	AT	5	91.48
AF	AA	1	263.67
AF	AA	2	281.56
AF	AA	3	177.09
AF	AA	4	155.27
AF	AA	5	116.00
AF	AB	1	252.55
AF	AB	2	269.68
AF	AB	3	169.62
AF	AB	4	148.72
AF	AB	5	111.11
AF	AC	1	257.55
AF	AC	2	275.02
AF	AC	3	172.98
AF	AC	4	151.67
AF	AC	5	113.31
AF	AD	1	101.02
AF	AD	2	107.87
AF	AD	3	67.85
AF	AD	4	59.49
AF	AD	5	44.44
AF	AE	1	176.79
AF	AE	2	188.78
AF	AE	3	118.74
AF	AE	4	104.11
AF	AE	5	77.78
AF	AG	1	136.00
AF	AG	2	145.23
AF	AG	3	91.35
AF	AG	4	80.09
AF	AG	5	59.83
AF	AH	1	217.25
AF	AH	2	231.99
AF	AH	3	145.92
AF	AH	4	127.94
AF	AH	5	95.58
AF	AI	1	1054.68
AF	AI	2	1126.22
AF	AI	3	708.37
AF	AI	4	621.08
AF	AI	5	464.00
AF	AJ	1	934.44
AF	AJ	2	997.82
AF	AJ	3	627.61
AF	AJ	4	550.27
AF	AJ	5	411.10
AF	AK	1	268.57
AF	AK	2	286.79
AF	AK	3	180.39
AF	AK	4	158.16
AF	AK	5	118.16
AF	AL	1	587.51
AF	AL	2	627.36
AF	AL	3	394.60
AF	AL	4	345.97
AF	AL	5	258.47
AF	AM	1	288.44
AF	AM	2	308.01
AF	AM	3	193.73
AF	AM	4	169.86
AF	AM	5	126.90
AF	AN	1	1024.20
AF	AN	2	1093.68
AF	AN	3	687.90
AF	AN	4	603.13
AF	AN	5	450.59
AF	AO	1	242.74
AF	AO	2	259.21
AF	AO	3	163.04
AF	AO	4	142.95
AF	AO	5	106.79
AF	AP	1	143.12
AF	AP	2	152.83
AF	AP	3	96.13
AF	AP	4	84.28
AF	AP	5	62.97
AF	AQ	1	79.81
AF	AQ	2	85.22
AF	AQ	3	53.60
AF	AQ	4	47.00
AF	AQ	5	35.11
AF	AR	1	26.15
AF	AR	2	27.93
AF	AR	3	17.57
AF	AR	4	15.40
AF	AR	5	11.51
AF	AS	1	262.20
AF	AS	2	279.98
AF	AS	3	176.11
AF	AS	4	154.40
AF	AS	5	115.35
AF	AT	1	240.31
AF	AT	2	256.61
AF	AT	3	161.40
AF	AT	4	141.51
AF	AT	5	105.72
AG	AA	1	178.58
AG	AA	2	190.69
AG	AA	3	119.94
AG	AA	4	105.16
AG	AA	5	78.56
AG	AB	1	136.00
AG	AB	2	145.23
AG	AB	3	91.35
AG	AB	4	80.09
AG	AB	5	59.83
AG	AC	1	126.28
AG	AC	2	134.84
AG	AC	3	84.81
AG	AC	4	74.36
AG	AC	5	55.55
AG	AD	1	136.00
AG	AD	2	145.23
AG	AD	3	91.35
AG	AD	4	80.09
AG	AD	5	59.83
AG	AE	1	178.58
AG	AE	2	190.69
AG	AE	3	119.94
AG	AE	4	105.16
AG	AE	5	78.56
AG	AF	1	136.00
AG	AF	2	145.23
AG	AF	3	91.35
AG	AF	4	80.09
AG	AF	5	59.83
AG	AH	1	126.28
AG	AH	2	134.84
AG	AH	3	84.81
AG	AH	4	74.36
AG	AH	5	55.55
AG	AI	1	1164.20
AG	AI	2	1243.17
AG	AI	3	781.93
AG	AI	4	685.57
AG	AI	5	512.18
AG	AJ	1	1041.29
AG	AJ	2	1111.93
AG	AJ	3	699.38
AG	AJ	4	613.20
AG	AJ	5	458.11
AG	AK	1	181.26
AG	AK	2	193.55
AG	AK	3	121.74
AG	AK	4	106.74
AG	AK	5	79.74
AG	AL	1	719.75
AG	AL	2	768.58
AG	AL	3	483.42
AG	AL	4	423.85
AG	AL	5	316.65
AG	AM	1	240.93
AG	AM	2	257.27
AG	AM	3	161.82
AG	AM	4	141.88
AG	AM	5	105.99
AG	AN	1	1135.15
AG	AN	2	1212.15
AG	AN	3	762.42
AG	AN	4	668.47
AG	AN	5	499.40
AG	AO	1	378.18
AG	AO	2	403.83
AG	AO	3	254.00
AG	AO	4	222.70
AG	AO	5	166.38
AG	AP	1	133.35
AG	AP	2	142.40
AG	AP	3	89.57
AG	AP	4	78.53
AG	AP	5	58.67
AG	AQ	1	57.87
AG	AQ	2	61.79
AG	AQ	3	38.87
AG	AQ	4	34.08
AG	AQ	5	25.46
AG	AR	1	115.84
AG	AR	2	123.70
AG	AR	3	77.80
AG	AR	4	68.22
AG	AR	5	50.96
AG	AS	1	279.20
AG	AS	2	298.14
AG	AS	3	187.52
AG	AS	4	164.42
AG	AS	5	122.83
AG	AT	1	338.09
AG	AT	2	361.02
AG	AT	3	227.08
AG	AT	4	199.09
AG	AT	5	148.74
AH	AA	1	282.36
AH	AA	2	301.51
AH	AA	3	189.65
AH	AA	4	166.28
AH	AA	5	124.22
AH	AB	1	217.25
AH	AB	2	231.99
AH	AB	3	145.92
AH	AB	4	127.94
AH	AB	5	95.58
AH	AC	1	178.58
AH	AC	2	190.69
AH	AC	3	119.94
AH	AC	4	105.16
AH	AC	5	78.56
AH	AD	1	147.26
AH	AD	2	157.25
AH	AD	3	98.91
AH	AD	4	86.72
AH	AD	5	64.79
AH	AE	1	126.28
AH	AE	2	134.84
AH	AE	3	84.81
AH	AE	4	74.36
AH	AE	5	55.55
AH	AF	1	217.25
AH	AF	2	231.99
AH	AF	3	145.92
AH	AF	4	127.94
AH	AF	5	95.58
AH	AG	1	126.28
AH	AG	2	134.84
AH	AG	3	84.81
AH	AG	4	74.36
AH	AG	5	55.55
AH	AI	1	1143.47
AH	AI	2	1221.04
AH	AI	3	768.01
AH	AI	4	673.37
AH	AI	5	503.06
AH	AJ	1	1018.06
AH	AJ	2	1087.12
AH	AJ	3	683.78
AH	AJ	4	599.52
AH	AJ	5	447.89
AH	AK	1	55.60
AH	AK	2	59.37
AH	AK	3	37.34
AH	AK	4	32.74
AH	AK	5	24.46
AH	AL	1	751.26
AH	AL	2	802.22
AH	AL	3	504.58
AH	AL	4	442.40
AH	AL	5	330.51
AH	AM	1	124.48
AH	AM	2	132.92
AH	AM	3	83.60
AH	AM	4	73.30
AH	AM	5	54.76
AH	AN	1	1116.85
AH	AN	2	1192.61
AH	AN	3	750.13
AH	AN	4	657.69
AH	AN	5	491.35
AH	AO	1	433.44
AH	AO	2	462.85
AH	AO	3	291.12
AH	AO	4	255.25
AH	AO	5	190.69
AH	AP	1	105.01
AH	AP	2	112.13
AH	AP	3	70.53
AH	AP	4	61.84
AH	AP	5	46.20
AH	AQ	1	164.64
AH	AQ	2	175.80
AH	AQ	3	110.58
AH	AQ	4	96.95
AH	AQ	5	72.43
AH	AR	1	209.12
AH	AR	2	223.31
AH	AR	3	140.46
AH	AR	4	123.15
AH	AR	5	92.00
AH	AS	1	206.14
AH	AS	2	220.12
AH	AS	3	138.45
AH	AS	4	121.39
AH	AS	5	90.69
AH	AT	1	332.15
AH	AT	2	354.68
AH	AT	3	223.08
AH	AT	4	195.59
AH	AT	5	146.12
AI	AA	1	1318.35
AI	AA	2	1407.78
AI	AA	3	885.47
AI	AA	4	776.35
AI	AA	5	580.00
AI	AB	1	1298.61
AI	AB	2	1386.70
AI	AB	3	872.21
AI	AB	4	764.73
AI	AB	5	571.31
AI	AC	1	1287.76
AI	AC	2	1375.11
AI	AC	3	864.92
AI	AC	4	758.34
AI	AC	5	566.54
AI	AD	1	1030.21
AI	AD	2	1100.09
AI	AD	3	691.94
AI	AD	4	606.67
AI	AD	5	453.23
AI	AE	1	1018.06
AI	AE	2	1087.12
AI	AE	3	683.78
AI	AE	4	599.52
AI	AE	5	447.89
AI	AF	1	1054.68
AI	AF	2	1126.22
AI	AF	3	708.37
AI	AF	4	621.08
AI	AF	5	464.00
AI	AG	1	1164.20
AI	AG	2	1243.17
AI	AG	3	781.93
AI	AG	4	685.57
AI	AG	5	512.18
AI	AH	1	1143.47
AI	AH	2	1221.04
AI	AH	3	768.01
AI	AH	4	673.37
AI	AH	5	503.06
AI	AJ	1	126.28
AI	AJ	2	134.84
AI	AJ	3	84.81
AI	AJ	4	74.36
AI	AJ	5	55.55
AI	AK	1	1148.60
AI	AK	2	1226.51
AI	AK	3	771.45
AI	AK	4	676.39
AI	AK	5	505.31
AI	AL	1	566.83
AI	AL	2	605.28
AI	AL	3	380.71
AI	AL	4	333.79
AI	AL	5	249.37
AI	AM	1	1070.39
AI	AM	2	1143.00
AI	AM	3	718.92
AI	AM	4	630.33
AI	AM	5	470.91
AI	AN	1	35.65
AI	AN	2	38.06
AI	AN	3	23.94
AI	AN	4	20.99
AI	AN	5	15.68
AI	AO	1	858.45
AI	AO	2	916.68
AI	AO	3	576.58
AI	AO	4	505.53
AI	AO	5	377.67
AI	AP	1	1050.64
AI	AP	2	1121.91
AI	AP	3	705.66
AI	AP	4	618.70
AI	AP	5	462.22
AI	AQ	1	1123.91
AI	AQ	2	1200.14
AI	AQ	3	754.87
AI	AQ	4	661.85
AI	AQ	5	494.45
AI	AR	1	1080.81
AI	AR	2	1154.12
AI	AR	3	725.92
AI	AR	4	636.47
AI	AR	5	475.49
AI	AS	1	946.64
AI	AS	2	1010.85
AI	AS	3	635.81
AI	AS	4	557.46
AI	AS	5	416.46
AI	AT	1	826.18
AI	AT	2	882.22
AI	AT	3	554.90
AI	AT	4	486.52
AI	AT	5	363.47
AJ	AA	1	1197.95
AJ	AA	2	1279.21
AJ	AA	3	804.60
AJ	AA	4	705.45
AJ	AA	5	527.03
AJ	AB	1	1176.19
AJ	AB	2	1255.98
AJ	AB	3	789.99
AJ	AB	4	692.64
AJ	AB	5	517.45
AJ	AC	1	1164.20
AJ	AC	2	1243.17
AJ	AC	3	781.93
AJ	AC	4	685.57
AJ	AC	5	512.18
AJ	AD	1	906.72
AJ	AD	2	968.23
AJ	AD	3	609.00
AJ	AD	4	533.95
AJ	AD	5	398.90
AJ	AE	1	892.90
AJ	AE	2	953.47
AJ	AE	3	599.71
AJ	AE	4	525.81
AJ	AE	5	392.82
AJ	AF	1	934.44
AJ	AF	2	997.82
AJ	AF	3	627.61
AJ	AF	4	550.27
AJ	AF	5	411.10
AJ	AG	1	1041.29
AJ	AG	2	1111.93
AJ	AG	3	699.38
AJ	AG	4	613.20
AJ	AG	5	458.11
AJ	AH	1	1018.06
AJ	AH	2	1087.12
AJ	AH	3	683.78
AJ	AH	4	599.52
AJ	AH	5	447.89
AJ	AI	1	126.28
AJ	AI	2	134.84
AJ	AI	3	84.81
AJ	AI	4	74.36
AJ	AI	5	55.55
AJ	AK	1	1022.60
AJ	AK	2	1091.96
AJ	AK	3	686.83
AJ	AK	4	602.19
AJ	AK	5	449.88
AJ	AL	1	479.00
AJ	AL	2	511.49
AJ	AL	3	321.72
AJ	AL	4	282.07
AJ	AL	5	210.73
AJ	AM	1	944.14
AJ	AM	2	1008.18
AJ	AM	3	634.13
AJ	AM	4	555.99
AJ	AM	5	415.37
AJ	AN	1	105.48
AJ	AN	2	112.63
AJ	AN	3	70.84
AJ	AN	4	62.11
AJ	AN	5	46.40
AJ	AO	1	746.25
AJ	AO	2	796.87
AJ	AO	3	501.22
AJ	AO	4	439.45
AJ	AO	5	328.31
AJ	AP	1	926.10
AJ	AP	2	988.92
AJ	AP	3	622.01
AJ	AP	4	545.36
AJ	AP	5	407.43
AJ	AQ	1	1002.22
AJ	AQ	2	1070.20
AJ	AQ	3	673.14
AJ	AQ	4	590.19
AJ	AQ	5	440.92
AJ	AR	1	960.50
AJ	AR	2	1025.65
AJ	AR	3	645.12
AJ	AR	4	565.62
AJ	AR	5	422.56
AJ	AS	1	820.56
AJ	AS	2	876.22
AJ	AS	3	551.13
AJ	AS	4	483.21
AJ	AS	5	361.00
AJ	AT	1	703.23
AJ	AT	2	750.93
AJ	AT	3	472.32
AJ	AT	4	414.12
AJ	AT	5	309.38
AK	AA	1	328.57
AK	AA	2	350.86
AK	AA	3	220.68
AK	AA	4	193.49
AK	AA	5	144.55
AK	AB	1	259.11
AK	AB	2	276.69
AK	AB	3	174.03
AK	AB	4	152.58
AK	AB	5	113.99
AK	AC	1	215.18
AK	AC	2	229.78
AK	AC	3	144.53
AK	AC	4	126.72
AK	AC	5	94.67
AK	AD	1	188.59
AK	AD	2	201.38
AK	AD	3	126.66
AK	AD	4	111.06
AK	AD	5	82.97
AK	AE	1	146.74
AK	AE	2	156.70
AK	AE	3	98.56
AK	AE	4	86.42
AK	AE	5	64.56
AK	AF	1	268.57
AK	AF	2	286.79
AK	AF	3	180.39
AK	AF	4	158.16
AK	AF	5	118.16
AK	AG	1	181.26
AK	AG	2	193.55
AK	AG	3	121.74
AK	AG	4	106.74
AK	AG	5	79.74
AK	AH	1	55.60
AK	AH	2	59.37
AK	AH	3	37.34
AK	AH	4	32.74
AK	AH	5	24.46
AK	AI	1	1148.60
AK	AI	2	1226.51
AK	AI	3	771.45
AK	AI	4	676.39
AK	AI	5	505.31
AK	AJ	1	1022.60
AK	AJ	2	1091.96
AK	AJ	3	686.83
AK	AJ	4	602.19
AK	AJ	5	449.88
AL	AA	1	835.91
AL	AA	2	892.61
AL	AA	3	561.44
AL	AA	4	492.25
AL	AA	5	367.75
AL	AB	1	838.81
AL	AB	2	895.70
AL	AB	3	563.38
AL	AB	4	493.96
AL	AB	5	369.02
AL	AC	1	844.52
AL	AC	2	901.80
AL	AC	3	567.22
AL	AC	4	497.32
AL	AC	5	371.54
AL	AD	1	607.86
AL	AD	2	649.09
AL	AD	3	408.27
AL	AD	4	357.96
AL	AD	5	267.42
AL	AE	1	633.35
AL	AE	2	676.31
AL	AE	3	425.39
AL	AE	4	372.97
AL	AE	5	278.63
AL	AF	1	587.51
AL	AF	2	627.36
AL	AF	3	394.60
AL	AF	4	345.97
AL	AF	5	258.47
AL	AG	1	719.75
AL	AG	2	768.58
AL	AG	3	483.42
AL	AG	4	423.85
AL	AG	5	316.65
AL	AH	1	751.26
AL	AH	2	802.22
AL	AH	3	504.58
AL	AH	4	442.40
AL	AH	5	330.51
AL	AI	1	566.83
AL	AI	2	605.28
AL	AI	3	380.71
AL	AI	4	333.79
AL	AI	5	249.37
AL	AJ	1	479.00
AL	AJ	2	511.49
AL	AJ	3	321.72
AL	AJ	4	282.07
AL	AJ	5	210.73
AM	AA	1	406.42
AM	AA	2	433.99
AM	AA	3	272.97
AM	AA	4	239.33
AM	AA	5	178.80
AM	AB	1	341.59
AM	AB	2	364.76
AM	AB	3	229.43
AM	AB	4	201.16
AM	AB	5	150.28
AM	AC	1	301.22
AM	AC	2	321.66
AM	AC	3	202.32
AM	AC	4	177.38
AM	AC	5	132.52
AM	AD	1	190.79
AM	AD	2	203.73
AM	AD	3	128.15
AM	AD	4	112.35
AM	AD	5	83.94
AM	AE	1	121.23
AM	AE	2	129.46
AM	AE	3	81.43
AM	AE	4	71.39
AM	AE	5	53.33
AM	AF	1	288.44
AM	AF	2	308.01
AM	AF	3	193.73
AM	AF	4	169.86
AM	AF	5	126.90
AM	AG	1	240.93
AM	AG	2	257.27
AM	AG	3	161.82
AM	AG	4	141.88
AM	AG	5	105.99
AM	AH	1	124.48
AM	AH	2	132.92
AM	AH	3	83.60
AM	AH	4	73.30
AM	AH	5	54.76
AM	AI	1	1070.39
AM	AI	2	1143.00
AM	AI	3	718.92
AM	AI	4	630.33
AM	AI	5	470.91
AM	AJ	1	944.14
AM	AJ	2	1008.18
AM	AJ	3	634.13
AM	AJ	4	555.99
AM	AJ	5	415.37
AN	AA	1	1287.84
AN	AA	2	1375.20
AN	AA	3	864.97
AN	AA	4	758.38
AN	AA	5	566.57
AN	AB	1	1269.19
AN	AB	2	1355.28
AN	AB	3	852.45
AN	AB	4	747.40
AN	AB	5	558.37
AN	AC	1	1259.14
AN	AC	2	1344.55
AN	AC	3	845.70
AN	AC	4	741.48
AN	AC	5	553.95
AN	AD	1	1001.63
AN	AD	2	1069.58
AN	AD	3	672.74
AN	AD	4	589.84
AN	AD	5	440.66
AN	AE	1	991.15
AN	AE	2	1058.38
AN	AE	3	665.70
AN	AE	4	583.67
AN	AE	5	436.05
AN	AF	1	1024.20
AN	AF	2	1093.68
AN	AF	3	687.90
AN	AF	4	603.13
AN	AF	5	450.59
AN	AG	1	1135.15
AN	AG	2	1212.15
AN	AG	3	762.42
AN	AG	4	668.47
AN	AG	5	499.40
AN	AH	1	1116.85
AN	AH	2	1192.61
AN	AH	3	750.13
AN	AH	4	657.69
AN	AH	5	491.35
AN	AI	1	35.65
AN	AI	2	38.06
AN	AI	3	23.94
AN	AI	4	20.99
AN	AI	5	15.68
AN	AJ	1	105.48
AN	AJ	2	112.63
AN	AJ	3	70.84
AN	AJ	4	62.11
AN	AJ	5	46.40
AO	AA	1	486.86
AO	AA	2	519.88
AO	AA	3	327.00
AO	AA	4	286.70
AO	AA	5	214.19
AO	AB	1	490.90
AO	AB	2	524.20
AO	AB	3	329.71
AO	AB	4	289.08
AO	AB	5	215.97
AO	AC	1	499.99
AO	AC	2	533.91
AO	AC	3	335.82
AO	AC	4	294.44
AO	AC	5	219.97
AO	AD	1	286.44
AO	AD	2	305.87
AO	AD	3	192.39
AO	AD	4	168.68
AO	AD	5	126.02
AO	AE	1	335.84
AO	AE	2	358.62
AO	AE	3	225.57
AO	AE	4	197.77
AO	AE	5	147.75
AO	AF	1	242.74
AO	AF	2	259.21
AO	AF	3	163.04
AO	AF	4	142.95
AO	AF	5	106.79
AO	AG	1	378.18
AO	AG	2	403.83
AO	AG	3	254.00
AO	AG	4	222.70
AO	AG	5	166.38
AO	AH	1	433.44
AO	AH	2	462.85
AO	AH	3	291.12
AO	AH	4	255.25
AO	AH	5	190.69
AO	AI	1	858.45
AO	AI	2	916.68
AO	AI	3	576.58
AO	AI	4	505.53
AO	AI	5	377.67
AO	AJ	1	746.25
AO	AJ	2	796.87
AO	AJ	3	501.22
AO	AJ	4	439.45
AO	AJ	5	328.31
AP	AA	1	311.86
AP	AA	2	333.01
AP	AA	3	209.46
AP	AA	4	183.65
AP	AA	5	137.20
AP	AB	1	265.02
AP	AB	2	283.00
AP	AB	3	178.00
AP	AB	4	156.07
AP	AB	5	116.59
AP	AC	1	242.09
AP	AC	2	258.51
AP	AC	3	162.60
AP	AC	4	142.56
AP	AC	5	106.50
AP	AD	1	48.19
AP	AD	2	51.46
AP	AD	3	32.37
AP	AD	4	28.38
AP	AD	5	21.20
AP	AE	1	45.77
AP	AE	2	48.88
AP	AE	3	30.74
AP	AE	4	26.95
AP	AE	5	20.14
AP	AF	1	143.12
AP	AF	2	152.83
AP	AF	3	96.13
AP	AF	4	84.28
AP	AF	5	62.97
AP	AG	1	133.35
AP	AG	2	142.40
AP	AG	3	89.57
AP	AG	4	78.53
AP	AG	5	58.67
AP	AH	1	105.01
AP	AH	2	112.13
AP	AH	3	70.53
AP	AH	4	61.84
AP	AH	5	46.20
AP	AI	1	1050.64
AP	AI	2	1121.91
AP	AI	3	705.66
AP	AI	4	618.70
AP	AI	5	462.22
AP	AJ	1	926.10
AP	AJ	2	988.92
AP	AJ	3	622.01
AP	AJ	4	545.36
AP	AJ	5	407.43
AQ	AA	1	199.45
AQ	AA	2	212.98
AQ	AA	3	133.96
AQ	AA	4	117.45
AQ	AA	5	87.75
AQ	AB	1	176.28
AQ	AB	2	188.23
AQ	AB	3	118.40
AQ	AB	4	103.81
AQ	AB	5	77.55
AQ	AC	1	177.89
AQ	AC	2	189.96
AQ	AC	3	119.48
AQ	AC	4	104.76
AQ	AC	5	78.26
AQ	AD	1	112.33
AQ	AD	2	119.95
AQ	AD	3	75.45
AQ	AD	4	66.15
AQ	AD	5	49.42
AQ	AE	1	175.21
AQ	AE	2	187.10
AQ	AE	3	117.68
AQ	AE	4	103.18
AQ	AE	5	77.08
AQ	AF	1	79.81
AQ	AF	2	85.22
AQ	AF	3	53.60
AQ	AF	4	47.00
AQ	AF	5	35.11
AQ	AG	1	57.87
AQ	AG	2	61.79
AQ	AG	3	38.87
AQ	AG	4	34.08
AQ	AG	5	25.46
AQ	AH	1	164.64
AQ	AH	2	175.80
AQ	AH	3	110.58
AQ	AH	4	96.95
AQ	AH	5	72.43
AQ	AI	1	1123.91
AQ	AI	2	1200.14
AQ	AI	3	754.87
AQ	AI	4	661.85
AQ	AI	5	494.45
AQ	AJ	1	1002.22
AQ	AJ	2	1070.20
AQ	AJ	3	673.14
AQ	AJ	4	590.19
AQ	AJ	5	440.92
AR	AA	1	237.55
AR	AA	2	253.66
AR	AA	3	159.55
AR	AA	4	139.89
AR	AA	5	104.51
AR	AB	1	227.28
AR	AB	2	242.69
AR	AB	3	152.65
AR	AB	4	133.84
AR	AB	5	99.99
AR	AC	1	234.20
AR	AC	2	250.09
AR	AC	3	157.30
AR	AC	4	137.92
AR	AC	5	103.03
AR	AD	1	110.35
AR	AD	2	117.84
AR	AD	3	74.12
AR	AD	4	64.98
AR	AD	5	48.55
AR	AE	1	184.91
AR	AE	2	197.45
AR	AE	3	124.19
AR	AE	4	108.89
AR	AE	5	81.35
AR	AF	1	26.15
AR	AF	2	27.93
AR	AF	3	17.57
AR	AF	4	15.40
AR	AF	5	11.51
AR	AG	1	115.84
AR	AG	2	123.70
AR	AG	3	77.80
AR	AG	4	68.22
AR	AG	5	50.96
AR	AH	1	209.12
AR	AH	2	223.31
AR	AH	3	140.46
AR	AH	4	123.15
AR	AH	5	92.00
AR	AI	1	1080.81
AR	AI	2	1154.12
AR	AI	3	725.92
AR	AI	4	636.47
AR	AI	5	475.49
AR	AJ	1	960.50
AR	AJ	2	1025.65
AR	AJ	3	645.12
AR	AJ	4	565.62
AR	AJ	5	422.56
AS	AA	1	457.73
AS	AA	2	488.78
AS	AA	3	307.43
AS	AA	4	269.55
AS	AA	5	201.37
AS	AB	1	406.54
AS	AB	2	434.12
AS	AB	3	273.05
AS	AB	4	239.40
AS	AB	5	178.85
AS	AC	1	377.05
AS	AC	2	402.62
AS	AC	3	253.24
AS	AC	4	222.03
AS	AC	5	165.88
AS	AD	1	166.20
AS	AD	2	177.48
AS	AD	3	111.63
AS	AD	4	97.87
AS	AD	5	73.12
AS	AE	1	100.87
AS	AE	2	107.71
AS	AE	3	67.75
AS	AE	4	59.40
AS	AE	5	44.38
AS	AF	1	262.20
AS	AF	2	279.98
AS	AF	3	176.11
AS	AF	4	154.40
AS	AF	5	115.35
AS	AG	1	279.20
AS	AG	2	298.14
AS	AG	3	187.52
AS	AG	4	164.42
AS	AG	5	122.83
AS	AH	1	206.14
AS	AH	2	220.12
AS	AH	3	138.45
AS	AH	4	121.39
AS	AH	5	90.69
AS	AI	1	946.64
AS	AI	2	1010.85
AS	AI	3	635.81
AS	AI	4	557.46
AS	AI	5	416.46
AS	AJ	1	820.56
AS	AJ	2	876.22
AS	AJ	3	551.13
AS	AJ	4	483.21
AS	AJ	5	361.00
AT	AA	1	499.15
AT	AA	2	533.01
AT	AA	3	335.25
AT	AA	4	293.94
AT	AA	5	219.60
AT	AB	1	473.08
AT	AB	2	505.16
AT	AB	3	317.74
AT	AB	4	278.58
AT	AB	5	208.12
AT	AC	1	461.82
AT	AC	2	493.15
AT	AC	3	310.18
AT	AC	4	271.96
AT	AC	5	203.17
AT	AD	1	204.46
AT	AD	2	218.33
AT	AD	3	137.32
AT	AD	4	120.40
AT	AD	5	89.95
AT	AE	1	207.94
AT	AE	2	222.05
AT	AE	3	139.66
AT	AE	4	122.45
AT	AE	5	91.48
AT	AF	1	240.31
AT	AF	2	256.61
AT	AF	3	161.40
AT	AF	4	141.51
AT	AF	5	105.72
AT	AG	1	338.09
AT	AG	2	361.02
AT	AG	3	227.08
AT	AG	4	199.09
AT	AG	5	148.74
AT	AH	1	332.15
AT	AH	2	354.68
AT	AH	3	223.08
AT	AH	4	195.59
AT	AH	5	146.12
AT	AI	1	826.18
AT	AI	2	882.22
AT	AI	3	554.90
AT	AI	4	486.52
AT	AI	5	363.47
AT	AJ	1	703.23
AT	AJ	2	750.93
AT	AJ	3	472.32
AT	AJ	4	414.12
AT	AJ	5	309.38
;

table R={R}  q(R)  p(R)  d(R):
	R	q	p	d	:=
	1	20.0	AA	AF
	2	10.0	AB	AG
	3	20.0	AC	AH
	4	20.0	AD	AI
	5	20.0	AE	AJ
;

